%mem=360GB
%nprocshared=40
%Chk=/users/psyche/volatile/gaussian/nanohybrid/chk/A3.chk
# wB97XD/Def2SVP Opt
# SCRF=(SMD,Solvent=Water)
# Integral=(Grid=UltraFineGrid)

Geometry optimisation, Mol: A3

0 1
C        5.1711600000        0.0562980000        1.3984800000
C        5.3665900000        2.3126000000        0.3781780000
C        8.6006900000        3.9629300000        3.2631200000
C        4.1260200000        0.4475800000        6.4934200000
C        6.2513700000        5.7529100000        5.3209800000
C        4.5595900000        1.1628600000        0.7618590000
C        5.3535800000        2.8523600000        7.4651300000
C        8.3906800000        1.7113900000        2.2240200000
C        3.2572200000        5.0900800000        2.5400800000
C        3.3466200000        1.6157300000        6.6711800000
C        1.6216000000        3.3558700000        3.0834200000
C        2.9678500000        5.1970300000        3.9632400000
C        3.3557900000        3.9646500000        6.4884900000
C        6.1652200000        4.0054300000        7.0885400000
C        3.2609300000        3.1174000000        1.0833300000
C        8.1271900000        4.1398100000        5.5678900000
C        1.6232900000        1.7195900000        3.2104700000
C        2.1214500000        1.1838900000        4.5696200000
C        7.5110900000        5.2757700000        4.8934400000
C        7.4942900000        0.0539670000        5.2915800000
C        8.7974100000        1.9199700000        4.6685200000
C        8.5910500000        1.0979500000        3.4817100000
C        7.3797100000        1.1932600000        1.3131700000
C        2.9478900000        0.0173570000        4.3607500000
C        2.6045100000        3.9073400000        2.0303800000
C        6.7533800000        2.3282200000        0.6430670000
C        3.9740600000        2.8334500000        7.1653100000
C        4.5666200000        3.5122400000        0.5832770000
C        3.9428200000        5.7162600000        4.8467400000
C        5.2222000000       -0.8632300000        4.8714900000
C        8.3958600000        3.1672500000        2.1126700000
C        2.1352600000        4.0792000000        4.3448500000
C        6.8072700000       -0.5603120000        2.9810100000
C        4.1409100000        5.0891000000        6.1378900000
C        4.5174000000        5.5030300000        2.0452200000
C        7.4598700000        2.0599400000        6.7605200000
C        6.1580300000        1.6507900000        7.2684700000
C        5.5277500000        6.0271700000        2.9586000000
C        3.9225300000       -0.3670370000        5.3125000000
C        2.3330400000        1.9817200000        5.6959200000
C        6.2318400000       -0.3451260000        5.7864700000
C        2.6016200000        1.0071300000        2.2554700000
C        6.6156900000        4.7150700000        1.3290300000
C        2.3400800000        3.4603100000        5.5805400000
C        5.2450800000        6.1329700000        4.3372500000
C        5.5051900000       -0.9697420000        3.4929500000
C        7.8034400000        5.1661200000        3.4679500000
C        6.6002100000        0.0740760000        1.6835700000
C        8.8017100000        3.3288300000        4.5609000000
C        5.1863100000        4.6987600000        1.0431400000
C        6.8272500000        5.5374300000        2.5155800000
C        3.2578600000        1.6380700000        1.1969600000
C        3.2408700000       -0.0918590000        2.9377800000
C        8.1182900000        1.2750300000        5.7865600000
C        7.3875100000        3.5475300000        1.1336700000
C        5.5671500000        5.1074200000        6.4366600000
C        5.5525200000        0.4661640000        6.7912600000
C        7.4642100000        3.5157700000        6.6491800000
C        4.4977700000       -0.5830130000        2.5107100000
C        7.7866200000       -0.0553510000        3.8661800000
H       -1.3646600000        5.2640100000        2.3264100000
H        0.2922830000        5.8029900000        2.4476700000
H       -0.2709400000        4.7534300000       -0.0533500000
H       -0.5214680000        3.2845100000       -2.0480600000
H       -0.5248870000        0.8199410000       -1.8160700000
H       -0.2629460000       -0.2446240000        0.4315220000
C       -0.2849990000        3.6700500000        0.0636800000
C       -0.4208380000        2.8378700000       -1.0594200000
C       -0.4219230000        1.4437800000       -0.9286690000
C       -0.2808160000        0.8404500000        0.3313280000
C       -0.1714760000        3.0718200000        1.3225600000
C       -0.1654860000        1.6691600000        1.4499900000
H       -0.4886780000        2.6265800000        4.6657800000
H       -1.7467900000        2.5124600000        3.4284700000
H       -0.2002830000        0.3555780000        3.2586100000
C       -0.6613180000        2.5458200000        3.5853100000
C        0.0356310000        3.6551100000        2.7339600000
C        0.0744830000        1.3659300000        2.9203400000
C       -1.0125600000       10.7310000000        7.8572300000
H        0.3412280000       10.8324000000        9.5704500000
H       -1.3167200000       10.4261000000        9.9993400000
H       -0.9010190000       12.0784000000        9.5616200000
C       -0.7040990000       11.0313000000        9.3302300000
O       -0.8249090000        7.5474100000        5.7494000000
C       -0.9868450000        7.0923100000        4.4736000000
C       -0.7205250000        5.5885300000        4.3597700000
C       -0.4433700000        5.1302700000        2.9078300000
H       -1.5936200000        5.0570600000        4.7659800000
H        0.1117890000        5.3328000000        5.0271000000
O       -1.3187600000        7.8316200000        3.5541500000
C       -0.7615360000        9.2545600000        7.4637300000
C       -1.0685600000        8.9639500000        5.9886000000
H       -0.4056550000       11.3884000000        7.2193700000
H       -2.0590400000       10.9938000000        7.6463200000
H       -1.3710700000        8.5934800000        8.0943600000
H        0.2825590000        8.9860200000        7.6735100000
H       -0.4263600000        9.5549100000        5.3105000000
H       -2.1214600000        9.1914700000        5.7373400000

