%mem=360GB
%nprocshared=40
%Chk=/users/psyche/volatile/gaussian/nanohybrid/chk/A6.chk
# wB97XD/Def2SVP Opt
# SCRF=(SMD,Solvent=Water)
# Integral=(Grid=UltraFineGrid)

Geometry optimisation, Mol: A6

0 1
H       -6.5625300000        6.1172500000        2.3224900000
H       -5.7196200000        7.5485300000        1.7403400000
C       -3.3905700000        6.1818700000        2.4200000000
H       -6.2706600000        6.3220500000        0.5971540000
O        1.9045900000       -5.8558400000       -5.9576100000
H        1.5593700000       -0.4897620000       -1.7574300000
C        5.5998600000       -7.8273000000       -3.4087600000
H        0.2582980000        2.3614900000        0.5599900000
H       -0.2248630000        0.8321260000        1.3432900000
H        0.6699010000        0.9264040000       -1.2133300000
C       -5.8358600000        6.4750100000        1.5865300000
F        6.7870100000       -9.1629900000       -8.6542300000
C       -5.8134600000       10.1973000000        7.8892200000
C       -4.8195100000       10.3737000000        6.9181700000
N       -2.5909100000       12.6258000000        5.4287500000
H       -7.2251200000        7.2407500000        6.8483400000
H       -4.1664200000       11.2390000000        6.9878800000
H        1.2970700000       -0.2509390000       -0.0272720000
C        4.6911500000       -8.0448600000       -8.6611300000
F       -5.9422100000       11.1028000000        8.8697500000
C       -2.9716700000        4.0024800000        1.1808800000
C       -4.5303100000        5.7371900000        1.7168600000
C        3.6787900000       -7.3610800000       -7.9787300000
H        6.8716000000       -8.7274300000       -6.1013800000
H        2.8065200000       -6.9765700000       -8.5037900000
C       -3.7667100000        9.3049700000        4.7451800000
C       -5.2044000000        7.3795600000        4.7634600000
S       -1.9205400000       -4.1146200000       -2.7012700000
C        4.9522500000       -7.6729700000       -5.8851100000
C        3.8282700000       -7.1847600000       -6.5922300000
C       -2.9188400000       10.3099000000        4.2943100000
C        5.9743600000       -8.3516200000       -6.5850000000
O       -5.7219400000        6.2937100000        4.5252100000
S        2.2290500000       -3.3892900000       -2.1060400000
C        5.8271200000       -8.5275100000       -7.9668200000
C       -2.7599900000       11.5869000000        4.9488200000
F        4.5969400000       -8.2417300000       -9.9849900000
C       -1.7248600000       -0.4421810000       -1.0155300000
C       -2.5963700000       -1.4386600000       -1.5552400000
S       -5.3082800000        3.4450300000        0.0497950000
C        0.8345770000       -0.1363890000       -1.0195800000
C       -2.1317800000       10.2117000000        3.0862300000
S       -1.9906600000        5.0879600000        2.1458300000
C       -3.6825300000        1.0668400000       -0.7456740000
C       -2.3085900000        0.7812640000       -0.4730700000
C       -5.5695200000        8.2859600000        5.8954600000
C       -4.7004600000        9.4024200000        5.8996000000
N       -1.4981200000       10.2071000000        2.1180100000
C       -6.5676300000        8.1077000000        6.8690000000
C       -4.0250300000       -1.2192900000       -1.7467200000
C       -4.5748100000        0.1122310000       -1.3928300000
C        6.7399900000       -8.6915100000       -3.6025400000
F       -7.6223000000        8.9601800000        8.8195900000
C       -0.1473580000       -4.2871000000       -2.6815400000
N       -5.8474700000        0.3470960000       -1.6231400000
H        0.0012000000       -6.5618900000       -4.7452900000
N       -4.8344500000       -2.1135700000       -2.2695400000
C       -1.7741100000       -2.5211500000       -1.9582300000
H        0.9303500000       -7.4386800000       -3.5345200000
H       -0.7158430000       -6.9138200000       -3.1749600000
C       -3.1555400000        7.3625800000        3.2084100000
C       -4.0193200000        8.0105900000        4.0822400000
C        2.0783900000       -4.9706500000       -2.9473600000
C        0.7245400000       -5.3173500000       -3.1425500000
C       -3.9618500000        2.3223800000       -0.1491720000
C       -2.7948600000        2.7572200000        0.5012290000
S       -6.5490600000       -1.2658500000       -2.3832700000
C       -0.4393140000       -2.1630900000       -1.7052600000
C        0.2124720000       -6.6294100000       -3.6736300000
C       -4.2763800000        4.5079100000        1.0396500000
C        5.3365100000       -7.5724200000       -2.0108800000
C        0.4904560000       -3.1676200000       -2.1178900000
N       -0.4051840000       -0.8891600000       -1.1464600000
C        2.9284400000       -6.4547900000       -5.6468300000
C        3.2960500000       -5.6875300000       -3.2196300000
C        3.5995000000       -6.5058100000       -4.3002800000
H        4.0983000000       -5.5014800000       -2.4979100000
N       -1.7904700000        1.8112700000        0.3202860000
C        4.8132900000       -7.3336600000       -4.4429400000
C       -0.5549640000        1.8425500000        1.0900300000
C       -6.6849900000        9.0813200000        7.8672200000
H       -0.7186350000        2.3734100000        2.0313400000
N        7.6613500000       -9.3849900000       -3.6949800000
N        5.1646500000       -7.4285200000       -0.8756580000
H       -2.1341700000        7.7513800000        3.1420700000

