%mem=360GB
%nprocshared=40
%Chk=/users/psyche/volatile/gaussian/nanohybrid/chk/D4.chk
# wB97XD/Def2SVP Opt
# SCRF=(SMD,Solvent=Water)
# Integral=(Grid=UltraFineGrid)

Geometry optimisation, Mol: D4

0 1
S       -1.9355800000        1.6418500000       -0.4582390000
C       -5.7803300000        4.8266600000        1.5771400000
C        9.1835800000       -7.6241100000       -2.6774500000
H       -4.3502700000        2.5134000000       -1.9208300000
S       -4.5829900000        3.8295900000        2.4151400000
C       -6.7826200000        5.6419800000        2.2500200000
C       -8.7404700000        7.2299100000        2.6848200000
S        3.9979900000       -3.3325600000       -2.2203700000
C       -2.7566900000        2.3091500000        0.9601030000
H       -3.2261300000        3.8716400000       -1.9181100000
S       -7.9239100000        6.5909500000        1.2641700000
C        1.7105900000       -1.3701800000       -3.3897400000
H       -0.7700590000        0.5741430000        3.9974700000
C       -3.8677700000        3.2431200000        0.8971280000
C       -6.3168600000        5.2162200000        4.7684200000
C        0.1748790000       -0.1482870000       -0.1464110000
S        1.3614500000       -1.1680100000        0.6820610000
H        1.0374600000       -0.7862450000       -4.0168000000
H       -9.6343000000        9.0866700000        2.0411500000
H       -4.9228100000        4.1321000000       -2.2906000000
H       -8.5071000000        7.0019000000        4.8253600000
C        6.3149100000       -5.1959400000       -3.3213700000
H       -6.3697500000        4.1233300000        4.7486700000
C       -8.1578800000        6.7353100000        3.8297700000
C       -2.1637900000        1.7875400000        2.1091100000
C       -7.0559700000        5.8412600000        3.6086300000
C        1.4066300000       -1.1489800000       -1.9260100000
C       -4.5451300000        3.8144500000       -0.1927580000
H       -0.2537120000        0.2595450000       -2.2473000000
H      -10.2593000000        8.4618100000        3.5674200000
H       -0.4386860000       -0.8517510000        3.0259400000
C       -9.9020400000        8.1730600000        2.5788300000
H      -10.7404000000        7.7225100000        2.0403300000
H       -6.7411000000        5.5405600000        5.7179900000
C        3.1940100000       -2.6679400000       -0.7906170000
C        5.1485300000       -4.2796500000       -1.2527400000
H       -5.2578400000        5.4914600000        4.7782400000
H        3.4933900000       -2.9174900000        1.3572400000
H        5.2640500000       -4.3616700000        2.2167200000
C       -0.3588680000        0.2392760000        3.0457300000
C        8.0366000000       -6.6518900000       -2.6661800000
S        7.3413600000       -6.1150900000       -1.1352000000
H        2.7311200000       -1.0715800000       -3.6467500000
H        5.6012900000       -5.7876300000        1.2479600000
C        6.1414600000       -5.0900600000       -1.9461500000
H        1.5934000000       -2.4184900000       -3.6800800000
C       -5.5991700000        4.6877200000        0.2034730000
C        7.3745900000       -6.0668500000       -3.7355500000
C        0.3585870000       -0.2742870000       -1.5223000000
H       -6.2192300000        5.2064300000       -0.5256460000
C        3.8108300000       -3.1799800000        0.3492910000
H        0.7061750000        0.4887510000        3.0485500000
C       -4.2430800000        3.5684400000       -1.6529100000
C        7.6992700000       -6.3081900000       -5.1941500000
C        2.0789400000       -1.7380600000       -0.8416270000
C        5.6605600000       -4.6952000000        1.2584400000
H       -2.4957500000        2.0495600000        3.1126300000
C        4.8962600000       -4.0736400000        0.1122790000
C       -1.0881000000        0.8809630000        1.8886800000
C       -0.8145300000        0.6749120000        0.5259070000
H        6.7208000000       -4.4264100000        1.2371200000
H        7.4325200000       -7.3229600000       -5.5025900000
H        7.1530800000       -5.6193500000       -5.8372700000
H        8.7631300000       -6.1775900000       -5.4045800000
H        9.5396700000       -7.8155800000       -3.6895000000
H       10.0325000000       -7.2549100000       -2.0948000000
H        8.8978300000       -8.5880400000       -2.2450400000
H        5.6975000000       -4.6575000000       -4.0385100000

